C101_SAMPLE
VEHICLE     NUMBER     CAPACITY
            2          200

CUSTOMER    CUST    XCOORD    YCOORD    DEMAND    READY     DUE    SERVICE
            0       40.0      50.0       0          0       1236      0
            1       45.0      68.0      10        912        967     90
            2       45.0      70.0      30        825        870     90
            3       42.0      66.0      10        652        721     90
            4       42.0      68.0      10        148        194     90
            5       42.0      65.0      10        177        218     90
            6       40.0      69.0      20        255        324     90
            7       40.0      66.0      20        587        629     90
            8       38.0      68.0      20        897        941     90
            9       38.0      70.0      10        743        820     90
           10       35.0      66.0      10        557        609     90
